# Objective value = 30
X[0] 0
X[1] 1
X[2] 0
X[3] 0
X[4] 1
X[5] 1
X[6] 0
X[7] 1
X[8] 0
X[9] 0
X[10] 0
X[11] 1
X[12] 0
X[13] 1
X[14] 1
X[15] 1
X[16] 1
X[17] 0
X[18] 0
X[19] 1
X[20] 0
X[21] 0
X[22] 0
X[23] 0
X[24] 1
X[25] 1
X[26] 1
X[27] 1
X[28] 1
X[29] 0
X[30] 1
X[31] 1
X[32] 1
X[33] 0
X[34] 1
X[35] 1
X[36] 1
X[37] 0
X[38] 1
X[39] 1
X[40] 0
X[41] 0
X[42] 1
X[43] 0
X[44] 0
X[45] 0
X[46] 0
X[47] 0
X[48] 1
X[49] 1
X[50] 1
X[51] 1
X[52] 1
X[53] 1
X[54] 0
